p edge 1376 1311
e 1 2
e 1 3
e 1 4
e 1 5
e 1 6
e 1 7
e 1 8
e 1 9
e 1 10
e 1 11
e 1 12
e 1 13
e 1 14
e 1 15
e 1 16
e 1 17
e 1 18
e 1 19
e 1 20
e 1 21
e 22 23
e 22 24
e 22 25
e 22 26
e 22 27
e 22 28
e 22 29
e 22 30
e 22 31
e 22 32
e 22 33
e 22 34
e 22 35
e 22 36
e 22 37
e 22 38
e 22 39
e 22 40
e 22 41
e 22 42
e 22 43
e 22 44
e 22 45
e 22 46
e 22 47
e 22 48
e 22 49
e 22 50
e 22 51
e 22 52
e 53 54
e 53 55
e 53 56
e 53 57
e 53 58
e 53 59
e 53 60
e 53 61
e 53 62
e 53 63
e 53 64
e 53 65
e 53 66
e 53 67
e 53 68
e 69 70
e 69 71
e 69 72
e 69 73
e 69 74
e 69 75
e 69 76
e 69 77
e 69 78
e 69 79
e 69 80
e 81 82
e 81 83
e 81 84
e 81 85
e 81 86
e 81 87
e 81 88
e 81 89
e 81 90
e 81 91
e 81 92
e 81 93
e 81 94
e 81 95
e 81 96
e 81 97
e 81 98
e 81 99
e 81 100
e 81 101
e 81 102
e 81 103
e 81 104
e 81 105
e 81 106
e 81 107
e 81 108
e 109 110
e 109 111
e 109 112
e 109 113
e 109 114
e 109 115
e 109 116
e 109 117
e 109 118
e 109 119
e 109 120
e 109 121
e 109 122
e 109 123
e 109 124
e 109 125
e 109 126
e 127 128
e 127 129
e 127 130
e 127 131
e 127 132
e 127 133
e 127 134
e 127 135
e 127 136
e 127 137
e 127 138
e 127 139
e 127 140
e 127 141
e 127 142
e 127 143
e 127 144
e 127 145
e 127 146
e 127 147
e 127 148
e 127 149
e 127 150
e 127 151
e 127 152
e 127 153
e 127 154
e 155 156
e 155 157
e 155 158
e 155 159
e 155 160
e 155 161
e 155 162
e 155 163
e 155 164
e 155 165
e 155 166
e 155 167
e 155 168
e 155 169
e 155 170
e 155 171
e 172 173
e 172 174
e 172 175
e 172 176
e 172 177
e 172 178
e 172 179
e 172 180
e 172 181
e 172 182
e 172 183
e 172 184
e 172 185
e 172 186
e 172 187
e 172 188
e 172 189
e 172 190
e 172 191
e 172 192
e 172 193
e 172 194
e 172 195
e 172 196
e 172 197
e 172 198
e 172 199
e 172 200
e 172 201
e 172 202
e 203 204
e 203 205
e 203 206
e 203 207
e 203 208
e 203 209
e 203 210
e 203 211
e 203 212
e 203 213
e 203 214
e 203 215
e 203 216
e 203 217
e 203 218
e 203 219
e 203 220
e 203 221
e 203 222
e 223 224
e 223 225
e 223 226
e 223 227
e 223 228
e 223 229
e 223 230
e 223 231
e 223 232
e 223 233
e 223 234
e 223 235
e 223 236
e 223 237
e 223 238
e 223 239
e 223 240
e 223 241
e 223 242
e 223 243
e 223 244
e 223 245
e 223 246
e 247 248
e 247 249
e 247 250
e 247 251
e 247 252
e 247 253
e 247 254
e 247 255
e 247 256
e 247 257
e 247 258
e 247 259
e 247 260
e 247 261
e 247 262
e 247 263
e 247 264
e 247 265
e 247 266
e 247 267
e 247 268
e 247 269
e 247 270
e 247 271
e 247 272
e 247 273
e 247 274
e 247 275
e 276 277
e 276 278
e 276 279
e 276 280
e 276 281
e 276 282
e 276 283
e 276 284
e 276 285
e 276 286
e 276 287
e 276 288
e 276 289
e 276 290
e 276 291
e 276 292
e 276 293
e 276 294
e 276 295
e 276 296
e 297 298
e 297 299
e 297 300
e 297 301
e 297 302
e 297 303
e 297 304
e 297 305
e 297 306
e 297 307
e 297 308
e 297 309
e 297 310
e 297 311
e 297 312
e 297 313
e 297 314
e 297 315
e 316 317
e 316 318
e 316 319
e 316 320
e 316 321
e 316 322
e 316 323
e 316 324
e 316 325
e 316 326
e 316 327
e 316 328
e 316 329
e 316 330
e 316 331
e 316 332
e 316 333
e 316 334
e 335 336
e 335 337
e 335 338
e 335 339
e 335 340
e 335 341
e 335 342
e 335 343
e 335 344
e 335 345
e 335 346
e 335 347
e 335 348
e 335 349
e 335 350
e 335 351
e 335 352
e 335 353
e 335 354
e 335 355
e 335 356
e 357 358
e 357 359
e 357 360
e 357 361
e 357 362
e 357 363
e 357 364
e 357 365
e 357 366
e 357 367
e 357 368
e 357 369
e 357 370
e 357 371
e 372 373
e 372 374
e 372 375
e 372 376
e 372 377
e 372 378
e 372 379
e 372 380
e 372 381
e 372 382
e 372 383
e 372 384
e 372 385
e 372 386
e 372 387
e 372 388
e 372 389
e 390 391
e 390 392
e 390 393
e 390 394
e 390 395
e 390 396
e 390 397
e 390 398
e 390 399
e 390 400
e 390 401
e 390 402
e 390 403
e 390 404
e 390 405
e 390 406
e 390 407
e 390 408
e 390 409
e 410 411
e 410 412
e 410 413
e 410 414
e 410 415
e 410 416
e 410 417
e 410 418
e 410 419
e 410 420
e 410 421
e 410 422
e 410 423
e 410 424
e 410 425
e 410 426
e 410 427
e 410 428
e 410 429
e 410 430
e 410 431
e 410 432
e 410 433
e 434 435
e 434 436
e 434 437
e 434 438
e 434 439
e 434 440
e 434 441
e 434 442
e 434 443
e 434 444
e 434 445
e 434 446
e 434 447
e 434 448
e 434 449
e 434 450
e 451 452
e 451 453
e 451 454
e 451 455
e 451 456
e 451 457
e 451 458
e 451 459
e 451 460
e 451 461
e 451 462
e 451 463
e 451 464
e 451 465
e 451 466
e 451 467
e 451 468
e 469 470
e 469 471
e 469 472
e 469 473
e 469 474
e 469 475
e 469 476
e 469 477
e 469 478
e 469 479
e 469 480
e 469 481
e 469 482
e 469 483
e 469 484
e 469 485
e 469 486
e 469 487
e 469 488
e 469 489
e 469 490
e 469 491
e 492 493
e 492 494
e 492 495
e 492 496
e 492 497
e 492 498
e 492 499
e 492 500
e 492 501
e 492 502
e 503 504
e 503 505
e 503 506
e 503 507
e 503 508
e 503 509
e 503 510
e 503 511
e 503 512
e 503 513
e 503 514
e 503 515
e 516 517
e 516 518
e 516 519
e 516 520
e 516 521
e 516 522
e 516 523
e 516 524
e 516 525
e 516 526
e 516 527
e 516 528
e 516 529
e 516 530
e 516 531
e 516 532
e 516 533
e 516 534
e 516 535
e 516 536
e 516 537
e 516 538
e 516 539
e 516 540
e 516 541
e 516 542
e 543 544
e 543 545
e 543 546
e 543 547
e 543 548
e 543 549
e 543 550
e 543 551
e 543 552
e 543 553
e 543 554
e 543 555
e 543 556
e 543 557
e 558 559
e 558 560
e 558 561
e 558 562
e 558 563
e 558 564
e 558 565
e 558 566
e 558 567
e 558 568
e 558 569
e 558 570
e 558 571
e 558 572
e 558 573
e 558 574
e 558 575
e 558 576
e 558 577
e 578 579
e 578 580
e 578 581
e 578 582
e 578 583
e 578 584
e 578 585
e 578 586
e 578 587
e 578 588
e 578 589
e 578 590
e 578 591
e 578 592
e 578 593
e 578 594
e 578 595
e 578 596
e 578 597
e 578 598
e 578 599
e 578 600
e 578 601
e 578 602
e 578 603
e 578 604
e 578 605
e 578 606
e 578 607
e 578 608
e 609 610
e 609 611
e 609 612
e 609 613
e 609 614
e 609 615
e 609 616
e 609 617
e 609 618
e 609 619
e 609 620
e 609 621
e 609 622
e 623 624
e 623 625
e 623 626
e 623 627
e 623 628
e 623 629
e 623 630
e 623 631
e 623 632
e 623 633
e 623 634
e 623 635
e 623 636
e 623 637
e 623 638
e 639 640
e 639 641
e 639 642
e 639 643
e 639 644
e 639 645
e 639 646
e 639 647
e 639 648
e 639 649
e 639 650
e 639 651
e 652 653
e 652 654
e 652 655
e 652 656
e 652 657
e 652 658
e 652 659
e 652 660
e 652 661
e 652 662
e 652 663
e 652 664
e 652 665
e 652 666
e 652 667
e 652 668
e 652 669
e 652 670
e 652 671
e 652 672
e 652 673
e 674 675
e 674 676
e 674 677
e 674 678
e 674 679
e 674 680
e 674 681
e 674 682
e 674 683
e 674 684
e 674 685
e 674 686
e 687 688
e 687 689
e 687 690
e 687 691
e 687 692
e 687 693
e 687 694
e 687 695
e 687 696
e 687 697
e 687 698
e 699 700
e 699 701
e 699 702
e 699 703
e 699 704
e 699 705
e 699 706
e 699 707
e 699 708
e 699 709
e 699 710
e 699 711
e 699 712
e 699 713
e 699 714
e 699 715
e 699 716
e 699 717
e 699 718
e 699 719
e 699 720
e 721 722
e 721 723
e 721 724
e 721 725
e 721 726
e 721 727
e 721 728
e 721 729
e 721 730
e 721 731
e 721 732
e 721 733
e 721 734
e 721 735
e 721 736
e 721 737
e 721 738
e 721 739
e 721 740
e 741 742
e 741 743
e 741 744
e 741 745
e 741 746
e 741 747
e 741 748
e 741 749
e 741 750
e 741 751
e 741 752
e 753 754
e 753 755
e 753 756
e 753 757
e 753 758
e 753 759
e 753 760
e 753 761
e 753 762
e 753 763
e 753 764
e 753 765
e 753 766
e 753 767
e 753 768
e 753 769
e 753 770
e 753 771
e 753 772
e 753 773
e 753 774
e 753 775
e 753 776
e 753 777
e 753 778
e 753 779
e 753 780
e 753 781
e 753 782
e 753 783
e 784 785
e 784 786
e 784 787
e 784 788
e 784 789
e 784 790
e 784 791
e 784 792
e 784 793
e 784 794
e 784 795
e 784 796
e 784 797
e 784 798
e 784 799
e 784 800
e 784 801
e 784 802
e 784 803
e 784 804
e 784 805
e 784 806
e 784 807
e 784 808
e 784 809
e 784 810
e 784 811
e 812 813
e 812 814
e 812 815
e 812 816
e 812 817
e 812 818
e 812 819
e 812 820
e 812 821
e 812 822
e 812 823
e 812 824
e 812 825
e 812 826
e 812 827
e 812 828
e 812 829
e 812 830
e 812 831
e 812 832
e 812 833
e 812 834
e 812 835
e 812 836
e 812 837
e 812 838
e 812 839
e 840 841
e 840 842
e 840 843
e 840 844
e 840 845
e 840 846
e 840 847
e 840 848
e 840 849
e 840 850
e 840 851
e 840 852
e 840 853
e 840 854
e 840 855
e 840 856
e 840 857
e 840 858
e 840 859
e 860 861
e 860 862
e 860 863
e 860 864
e 860 865
e 860 866
e 860 867
e 860 868
e 860 869
e 860 870
e 860 871
e 860 872
e 860 873
e 860 874
e 860 875
e 860 876
e 860 877
e 860 878
e 860 879
e 860 880
e 860 881
e 860 882
e 860 883
e 860 884
e 860 885
e 886 887
e 886 888
e 886 889
e 886 890
e 886 891
e 886 892
e 886 893
e 886 894
e 886 895
e 886 896
e 886 897
e 886 898
e 886 899
e 886 900
e 886 901
e 886 902
e 886 903
e 886 904
e 886 905
e 886 906
e 886 907
e 886 908
e 909 910
e 909 911
e 909 912
e 909 913
e 909 914
e 909 915
e 909 916
e 909 917
e 909 918
e 909 919
e 909 920
e 921 922
e 921 923
e 921 924
e 921 925
e 921 926
e 921 927
e 921 928
e 921 929
e 921 930
e 921 931
e 921 932
e 921 933
e 921 934
e 921 935
e 921 936
e 921 937
e 921 938
e 921 939
e 921 940
e 921 941
e 921 942
e 921 943
e 944 945
e 944 946
e 944 947
e 944 948
e 944 949
e 944 950
e 944 951
e 944 952
e 944 953
e 944 954
e 944 955
e 944 956
e 944 957
e 944 958
e 944 959
e 944 960
e 944 961
e 944 962
e 944 963
e 944 964
e 965 966
e 965 967
e 965 968
e 965 969
e 965 970
e 965 971
e 965 972
e 965 973
e 965 974
e 965 975
e 965 976
e 965 977
e 965 978
e 965 979
e 965 980
e 965 981
e 965 982
e 965 983
e 965 984
e 965 985
e 986 987
e 986 988
e 986 989
e 986 990
e 986 991
e 986 992
e 986 993
e 986 994
e 986 995
e 986 996
e 986 997
e 986 998
e 986 999
e 986 1000
e 986 1001
e 1002 1003
e 1002 1004
e 1002 1005
e 1002 1006
e 1002 1007
e 1002 1008
e 1002 1009
e 1002 1010
e 1002 1011
e 1002 1012
e 1002 1013
e 1002 1014
e 1002 1015
e 1002 1016
e 1002 1017
e 1002 1018
e 1002 1019
e 1002 1020
e 1002 1021
e 1002 1022
e 1002 1023
e 1002 1024
e 1002 1025
e 1002 1026
e 1002 1027
e 1002 1028
e 1002 1029
e 1002 1030
e 1031 1032
e 1031 1033
e 1031 1034
e 1031 1035
e 1031 1036
e 1031 1037
e 1031 1038
e 1031 1039
e 1031 1040
e 1031 1041
e 1031 1042
e 1031 1043
e 1031 1044
e 1031 1045
e 1046 1047
e 1046 1048
e 1046 1049
e 1046 1050
e 1046 1051
e 1046 1052
e 1046 1053
e 1046 1054
e 1046 1055
e 1046 1056
e 1046 1057
e 1046 1058
e 1046 1059
e 1046 1060
e 1046 1061
e 1046 1062
e 1046 1063
e 1046 1064
e 1046 1065
e 1046 1066
e 1046 1067
e 1046 1068
e 1046 1069
e 1046 1070
e 1046 1071
e 1046 1072
e 1046 1073
e 1046 1074
e 1075 1076
e 1075 1077
e 1075 1078
e 1075 1079
e 1075 1080
e 1075 1081
e 1075 1082
e 1075 1083
e 1075 1084
e 1075 1085
e 1075 1086
e 1075 1087
e 1075 1088
e 1075 1089
e 1075 1090
e 1075 1091
e 1075 1092
e 1075 1093
e 1075 1094
e 1075 1095
e 1075 1096
e 1075 1097
e 1075 1098
e 1075 1099
e 1075 1100
e 1075 1101
e 1075 1102
e 1075 1103
e 1075 1104
e 1075 1105
e 1106 1107
e 1106 1108
e 1106 1109
e 1106 1110
e 1106 1111
e 1106 1112
e 1106 1113
e 1106 1114
e 1106 1115
e 1106 1116
e 1106 1117
e 1106 1118
e 1119 1120
e 1119 1121
e 1119 1122
e 1119 1123
e 1119 1124
e 1119 1125
e 1119 1126
e 1119 1127
e 1119 1128
e 1119 1129
e 1119 1130
e 1119 1131
e 1119 1132
e 1119 1133
e 1119 1134
e 1119 1135
e 1119 1136
e 1119 1137
e 1119 1138
e 1119 1139
e 1119 1140
e 1119 1141
e 1142 1143
e 1142 1144
e 1142 1145
e 1142 1146
e 1142 1147
e 1142 1148
e 1142 1149
e 1142 1150
e 1142 1151
e 1142 1152
e 1142 1153
e 1142 1154
e 1142 1155
e 1142 1156
e 1142 1157
e 1142 1158
e 1142 1159
e 1142 1160
e 1142 1161
e 1142 1162
e 1142 1163
e 1142 1164
e 1142 1165
e 1142 1166
e 1142 1167
e 1142 1168
e 1169 1170
e 1169 1171
e 1169 1172
e 1169 1173
e 1169 1174
e 1169 1175
e 1169 1176
e 1169 1177
e 1169 1178
e 1169 1179
e 1169 1180
e 1169 1181
e 1169 1182
e 1169 1183
e 1169 1184
e 1169 1185
e 1169 1186
e 1169 1187
e 1169 1188
e 1169 1189
e 1169 1190
e 1169 1191
e 1169 1192
e 1169 1193
e 1169 1194
e 1169 1195
e 1169 1196
e 1169 1197
e 1169 1198
e 1199 1200
e 1199 1201
e 1199 1202
e 1199 1203
e 1199 1204
e 1199 1205
e 1199 1206
e 1199 1207
e 1199 1208
e 1199 1209
e 1199 1210
e 1199 1211
e 1199 1212
e 1199 1213
e 1199 1214
e 1199 1215
e 1199 1216
e 1199 1217
e 1199 1218
e 1199 1219
e 1199 1220
e 1199 1221
e 1199 1222
e 1199 1223
e 1199 1224
e 1199 1225
e 1199 1226
e 1199 1227
e 1199 1228
e 1199 1229
e 1230 1231
e 1230 1232
e 1230 1233
e 1230 1234
e 1230 1235
e 1230 1236
e 1230 1237
e 1230 1238
e 1230 1239
e 1230 1240
e 1241 1242
e 1241 1243
e 1241 1244
e 1241 1245
e 1241 1246
e 1241 1247
e 1241 1248
e 1241 1249
e 1241 1250
e 1241 1251
e 1241 1252
e 1241 1253
e 1241 1254
e 1241 1255
e 1241 1256
e 1257 1258
e 1257 1259
e 1257 1260
e 1257 1261
e 1257 1262
e 1257 1263
e 1257 1264
e 1257 1265
e 1257 1266
e 1257 1267
e 1257 1268
e 1257 1269
e 1257 1270
e 1257 1271
e 1257 1272
e 1257 1273
e 1257 1274
e 1257 1275
e 1257 1276
e 1257 1277
e 1278 1279
e 1278 1280
e 1278 1281
e 1278 1282
e 1278 1283
e 1278 1284
e 1278 1285
e 1278 1286
e 1278 1287
e 1278 1288
e 1278 1289
e 1278 1290
e 1278 1291
e 1278 1292
e 1278 1293
e 1278 1294
e 1278 1295
e 1278 1296
e 1278 1297
e 1278 1298
e 1278 1299
e 1278 1300
e 1278 1301
e 1302 1303
e 1302 1304
e 1302 1305
e 1302 1306
e 1302 1307
e 1302 1308
e 1302 1309
e 1302 1310
e 1302 1311
e 1302 1312
e 1302 1313
e 1302 1314
e 1302 1315
e 1302 1316
e 1302 1317
e 1302 1318
e 1302 1319
e 1302 1320
e 1302 1321
e 1302 1322
e 1302 1323
e 1302 1324
e 1302 1325
e 1326 1327
e 1326 1328
e 1326 1329
e 1326 1330
e 1326 1331
e 1326 1332
e 1326 1333
e 1326 1334
e 1326 1335
e 1326 1336
e 1326 1337
e 1326 1338
e 1326 1339
e 1326 1340
e 1326 1341
e 1326 1342
e 1326 1343
e 1326 1344
e 1326 1345
e 1326 1346
e 1326 1347
e 1326 1348
e 1326 1349
e 1326 1350
e 1326 1351
e 1352 1353
e 1352 1354
e 1352 1355
e 1352 1356
e 1352 1357
e 1352 1358
e 1352 1359
e 1352 1360
e 1352 1361
e 1352 1362
e 1352 1363
e 1352 1364
e 1352 1365
e 1352 1366
e 1352 1367
e 1352 1368
e 1352 1369
e 1352 1370
e 1352 1371
e 1352 1372
e 1352 1373
e 1352 1374
e 1352 1375
e 1352 1376
